NAME: cum120.tsp
TYPE: TSP
COMMENT: User-generated TSP file
DIMENSION: 120
EDGE_WEIGHT_TYPE: EUC_2D
NODE_COORD_SECTION
1 76.0 53.0
2 94.0 53.0
3 97.0 26.0
4 61.0 39.0
5 44.0 6.0
6 119.0 74.0
7 22.0 34.0
8 110.0 51.0
9 97.0 21.0
10 57.0 85.0
11 54.0 47.0
12 44.0 92.0
13 6.0 80.0
14 16.0 15.0
15 11.0 76.0
16 17.0 85.0
17 113.0 66.0
18 54.0 94.0
19 86.0 59.0
20 14.0 11.0
21 1.0 117.0
22 50.0 1.0
23 56.0 51.0
24 78.0 80.0
25 75.0 97.0
26 98.0 120.0
27 87.0 99.0
28 102.0 103.0
29 69.0 100.0
30 20.0 95.0
31 116.0 91.0
32 84.0 106.0
33 22.0 76.0
34 119.0 23.0
35 1.0 39.0
36 97.0 115.0
37 118.0 5.0
38 63.0 20.0
39 41.0 10.0
40 74.0 74.0
41 82.0 90.0
42 117.0 100.0
43 94.0 47.0
44 93.0 73.0
45 21.0 27.0
46 16.0 106.0
47 46.0 74.0
48 102.0 15.0
49 18.0 112.0
50 105.0 23.0
51 104.0 35.0
52 107.0 53.0
53 11.0 78.0
54 85.0 18.0
55 90.0 62.0
56 7.0 88.0
57 63.0 15.0
58 98.0 90.0
59 34.0 3.0
60 97.0 53.0
61 117.0 79.0
62 82.0 35.0
63 115.0 5.0
64 83.0 13.0
65 118.0 20.0
66 56.0 15.0
67 100.0 30.0
68 118.0 57.0
69 108.0 86.0
70 109.0 23.0
71 49.0 96.0
72 41.0 75.0
73 44.0 8.0
74 120.0 102.0
75 40.0 73.0
76 42.0 118.0
77 66.0 89.0
78 43.0 96.0
79 34.0 29.0
80 6.0 72.0
81 9.0 100.0
82 98.0 26.0
83 26.0 58.0
84 34.0 108.0
85 43.0 64.0
86 34.0 82.0
87 31.0 110.0
88 26.0 20.0
89 75.0 24.0
90 58.0 106.0
91 58.0 104.0
92 71.0 12.0
93 84.0 55.0
94 53.0 62.0
95 93.0 84.0
96 11.0 38.0
97 47.0 5.0
98 50.0 3.0
99 3.0 40.0
100 10.0 23.0
101 100.0 24.0
102 70.0 49.0
103 70.0 96.0
104 57.0 23.0
105 29.0 16.0
106 40.0 36.0
107 56.0 68.0
108 93.0 97.0
109 26.0 99.0
110 83.0 38.0
111 93.0 42.0
112 15.0 68.0
113 20.0 15.0
114 78.0 35.0
115 2.0 56.0
116 21.0 111.0
117 94.0 19.0
118 85.0 15.0
119 17.0 38.0
120 102.0 115.0
EOF





